p cnf 11 21
-8 -10 -18 -22 -27 0
-4 -6 -10 -14 -23 0
-4 -6 -10 -14 -19 0
-4 -6 -10 -14 -27 0
-4 -6 -14 -22 -27 0
-12 -14 -18 -22 -27 0
-4 -6 -14 -18 -23 0
-4 -10 -14 -18 -23 0
-8 -10 -14 -18 -23 0
-4 -6 -10 -22 -27 0
-4 -10 -14 -22 -27 0
-4 -6 -18 -22 -27 0
-4 -6 -14 -18 -27 0
-4 -14 -18 -22 -27 0
-8 -14 -18 -22 -27 0
-8 -10 -14 -18 -27 0
-4 -10 -14 -18 -27 0
-4 -6 -10 -18 -27 0
-4 -10 -18 -22 -27 0
-4 -6 -10 -18 -23 0
-8 -10 -14 -22 -27 0
